NAME : A-n20-k4
COMMENT : (Augerat et al, No of trucks: 4, Optimal value: 634)
TYPE : CVRP
DIMENSION : 20
EDGE_WEIGHT_TYPE : EUC_2D 
CAPACITY : 64
NODE_COORD_SECTION 
 1 82 76
 2 49 8
 3 29 89
 4 58 30
 5 84 39
 6 14 24
 7 2 39
 8 3 82
 9 5 10
 10 61 59
 11 19 32
 12 50 93
 13 98 14
 14 5 42
 15 42 9
 16 80 55
 17 23 15
 18 20 70
 19 85 60
 20 98 5
DEMAND_SECTION 
1 0
2 6
3 7
4 12
5 16
6 6
7 16
8 8
9 14
10 3
11 1
12 8
13 12
14 4
15 8
16 2
17 15
18 2
19 14
20 9
DEPOT_SECTION 
 1  
 -1  
EOF 
